1



15 2 0 0
        0       1       1       0       1       0       0       0       1       1       1       0       1       1       1

      50      80      66     110      83      58      81      85      69      83      84      81      86      79      82

       4       4      52      21      81      55       6      19      58      37      36      47      1      89      55
      50      88      22      56      70      63      11      72      49      48      68      94      6      94      35

 0 0 0 0 0
